; benchmark generated from python API
(set-info :status unknown)
(declare-fun S_4 () Real)
(declare-fun S_5 () Real)
(declare-fun C () Real)
(declare-fun S_0 () Real)
(declare-fun A_0 () Real)
(declare-fun L_0 () Real)
(declare-fun L0 () Real)
(declare-fun S_1 () Real)
(declare-fun S_2 () Real)
(declare-fun S_3 () Real)
(declare-fun L_1 () Real)
(declare-fun A_4 () Real)
(declare-fun B () Real)
(declare-fun A_5 () Real)
(declare-fun L_2 () Real)
(declare-fun L_5 () Real)
(declare-fun L_4 () Real)
(declare-fun A_1 () Real)
(declare-fun L_3 () Real)
(declare-fun A_2 () Real)
(declare-fun A_3 () Real)
(assert
 (let (($x42 (>= L0 0.0)))
 (let (($x664 (>= C 5.0)))
 (let (($x1004 (not (<= L_5 L_2))))
 (let ((?x632 (* (- 1.0) B)))
 (let ((?x267 (* (- 1.0) L_5)))
 (let ((?x990 (+ A_5 ?x267 ?x632)))
 (let ((?x335 (* (- 1.0) C)))
 (let ((?x10533 (+ ?x632 ?x267 A_5 ?x335)))
 (let (($x10534 (<= (+ A_4 (* (- 1.0) L_0)) ?x10533)))
 (let (($x2427 (not (= L_2 L_5))))
 (let (($x10863 (<= (+ A_1 (* (- 1.0) L_0) L_5 (* (- 1.0) A_5) (* 4.0 C)) 0.0)))
 (let (($x10436 (<= A_4 (+ A_1 ?x632 (* 3.0 C)))))
 (let (($x1683 (= L_5 L_2)))
 (let (($x1527 (not (<= L_2 L_0))))
 (let (($x3662 (= L_5 L_0)))
 (let (($x2827 (not (= L_0 L_3))))
 (let (($x19012 (or $x2827 $x3662 $x10534 (not (<= 0.0 (+ (* 4.0 C) L_0 (* (- 1.0) A_4) S_0))))))
 (let (($x11339 (<= 0.0 (+ (* 4.0 C) L_0 (* (- 1.0) A_4) S_0))))
 (let (($x10598 (<= (+ A_1 (* (- 1.0) L_0) L_2 (* (- 1.0) A_2) C) 0.0)))
 (let (($x10609 (not $x10598)))
 (let (($x1382 (= L_2 L_0)))
 (let (($x19587 (or $x1382 (<= S_5 (+ A_2 (* (- 1.0) L_2) ?x632 (* 3.0 C))) $x10609)))
 (let ((?x563 (* (- 1.0) L_0)))
 (let ((?x879 (+ A_0 ?x563)))
 (let ((?x572 (* (- 2.0) C)))
 (let ((?x377 (* (- 1.0) L_2)))
 (let ((?x10614 (+ ?x632 ?x377 A_2 ?x572)))
 (let (($x19635 (or $x2827 $x3662 (<= (+ A_2 ?x563 L_5 (* (- 1.0) A_5) (* 3.0 C)) 0.0))))
 (let ((?x268 (+ A_5 ?x267)))
 (let (($x10234 (= ?x268 (+ A_2 ?x377 (* 3.0 C)))))
 (let ((?x569 (* (- 1.0) L_1)))
 (let ((?x986 (+ A_1 ?x569 ?x632)))
 (let (($x999 (<= S_1 ?x986)))
 (let (($x1001 (not (<= L_2 L_1))))
 (let (($x59 (= L_1 L_0)))
 (let (($x19900 (or $x59 $x1001 $x1004 (<= (+ A_5 (* (- 1.0) A_1) (* (- 4.0) C)) 0.0))))
 (let (($x1583 (not (= L_1 L_2))))
 (let (($x69 (= L_2 L_1)))
 (let (($x19471 (or $x69 $x1004 (<= (+ A_5 (* (- 1.0) A_2) (* (- 3.0) C)) 0.0))))
 (let (($x997 (<= L_1 L_0)))
 (let (($x147 (>= A_3 A_2)))
 (let (($x137 (>= S_3 S_2)))
 (let (($x79 (= L_3 L_2)))
 (let (($x89 (= L_4 L_3)))
 (let (($x41 (>= L_0 L0)))
 (let (($x131 (>= S_1 S_0)))
 (let (($x134 (>= S_2 S_1)))
 (let (($x140 (>= S_4 S_3)))
 (let (($x146 (>= A_2 A_1)))
 (let (($x148 (>= A_4 A_3)))
 (and (<= (+ A_4 (* (- 1.0) L_4)) S_5) (<= ?x879 S_4) (not (<= (+ A_1 ?x569) S_4)) $x148 $x146 $x140 $x134 $x131 $x41 $x89 $x79 $x137 (or $x59 (not $x997)) (or $x69 (<= S_2 (+ A_2 ?x377 ?x632))) (>= S_3 (+ A_2 ?x377 ?x632)) (>= S_1 (+ ?x632 ?x569 A_1 ?x335)) (or (= L_5 L_4) (<= S_5 ?x990)) (or $x59 $x999) $x147 (or $x1004 $x1683) (>= S_4 (+ A_2 ?x377 ?x632 C)) (or $x69 $x997 (= (+ A_2 ?x377) (+ A_1 ?x569 C))) (or (not (= (+ A_1 ?x569 C) (+ A_2 ?x377))) $x997 $x1683 $x10234) (or $x69 (<= S_3 (+ A_2 ?x377 ?x632 C))) (>= S_2 ?x986) (or $x69 $x1001) (>= S_0 (+ ?x632 ?x569 A_1 ?x572)) (<= (+ ?x632 ?x569 A_1 ?x335) ?x879) (or $x59 (<= S_0 (+ ?x632 ?x569 A_1 ?x335))) (or $x59 (<= S_2 (+ A_1 ?x569 ?x632 C))) (or $x59 (<= S_3 (+ A_1 ?x569 ?x632 (* 2.0 C)))) (or $x59 (<= S_4 (+ A_1 ?x569 ?x632 (* 3.0 C)))) (>= S_3 (+ A_1 ?x569 ?x632 C)) (or $x997 $x1683 (= ?x268 (+ A_1 ?x569 (* 4.0 C))) $x10436) (or (= L_5 L_1) (= ?x990 (+ A_4 ?x569 C)) (not $x10436)) (or $x997 (<= S_5 (+ A_1 ?x569 ?x632 (* 4.0 C)))) (<= S_5 (+ A_5 ?x377)) $x19471 (>= S_4 (+ A_1 ?x569 ?x632 (* 2.0 C))) (or $x59 $x1583 (<= (+ A_2 (* (- 1.0) A_1) ?x335) 0.0)) $x19900 (or $x69 (<= S_1 (+ ?x632 ?x377 A_2 ?x335))) (or (not (= L_0 L_1)) $x1382 $x10598) (or $x999 $x1683 $x10534 (<= S_1 (+ ?x632 ?x267 A_5 (* (- 4.0) C)))) (<= (+ C S_1 (* (- 1.0) S_3)) 0.0) (<= (+ (* 2.0 C) S_1 (* (- 1.0) S_4)) 0.0) (<= (+ ?x572 S_1 (* (- 1.0) S_0)) 0.0) (or $x2427 (<= (+ ?x632 ?x377 A_5 (* (- 5.0) C)) ?x879)) (>= S_2 (+ ?x632 ?x377 A_2 ?x335)) (or $x1382 $x1683 $x10234 $x10609) (or (not (= L_0 L_2)) (<= (+ ?x632 A_2 ?x572) A_0)) (or (not (= L_0 L_1)) $x1382 (<= S_0 ?x10614)) $x19635 (<= (+ ?x572 (* (- 1.0) S_1) S_2) 0.0) (<= ?x10614 ?x879) (>= S_1 ?x10614) $x19587 (>= S_0 (+ ?x632 ?x377 A_2 (* (- 3.0) C))) (<= (+ ?x572 (* (- 1.0) S_2) S_3) 0.0) (>= S_2 (+ ?x632 ?x267 A_5 (* (- 4.0) C))) (<= (+ (* (- 3.0) C) L_0 (* (- 1.0) A_0) S_3) 0.0) (or $x1527 $x1683 $x10534 (<= S_3 (+ ?x632 ?x267 A_5 ?x572))) (or $x1527 $x1683 $x10534 (<= S_2 (+ ?x632 ?x267 A_5 (* (- 3.0) C)))) (or $x1527 $x1683 (<= S_0 (+ ?x632 ?x267 A_5 (* (- 5.0) C))) $x11339) $x19012 (<= (+ ?x632 ?x267 A_5 (* (- 5.0) C)) ?x879) (or $x1527 $x1683 $x10436 $x10863) (>= S_3 (+ ?x632 ?x267 A_5 (* (- 3.0) C))) (or (= L_5 L_4) (<= S_4 ?x10533)) (<= (+ (* (- 4.0) C) S_3 (* (- 1.0) S_0)) 0.0) (<= (+ (* (- 3.0) C) (* (- 1.0) S_1) S_3) 0.0) (or $x2427 (>= S_4 (+ ?x632 ?x377 A_5 ?x572))) (>= S_4 (+ ?x632 ?x267 A_5 ?x572)) (<= (+ C S_2 (* (- 1.0) S_4)) 0.0) (<= (+ ?x572 L_0 (* (- 1.0) A_0) S_2) 0.0) (<= (+ ?x335 L_0 S_1 (* (- 1.0) A_0)) 0.0) (<= (+ (* 3.0 C) S_0 (* (- 1.0) S_4)) 0.0) (<= (+ (* 2.0 C) (* (- 1.0) S_3) S_0) 0.0) (<= (+ (* (- 3.0) C) S_2 (* (- 1.0) S_0)) 0.0) (<= (+ C (* (- 1.0) S_2) S_0) 0.0) (>= S_1 (+ ?x632 ?x267 A_5 (* (- 5.0) C))) (>= S_0 (+ ?x632 ?x267 A_5 (* (- 6.0) C))) (or (not $x10534) (= ?x990 (+ A_4 ?x563 C))) (<= (+ (* (- 6.0) C) (* (- 1.0) S_0) S_5) 0.0) (<= (+ (* (- 4.0) C) L_0 (* (- 1.0) A_0) S_4) 0.0) (<= (+ (* (- 5.0) C) (* (- 1.0) S_0) S_4) 0.0) (or $x1004 (<= (+ A_5 (* (- 1.0) A_4) ?x335) B)) (<= (+ (* (- 3.0) C) (* (- 1.0) S_2) S_4) 0.0) (<= (+ ?x572 (* (- 1.0) S_3) S_4) 0.0) (<= S_5 (+ A_4 ?x569 C)) (<= (+ (* (- 5.0) C) L_0 (* (- 1.0) A_0) S_5) 0.0) (<= (+ (* (- 3.0) C) (* (- 1.0) S_3) S_5) 0.0) (<= (+ (* (- 4.0) C) (* (- 1.0) S_1) S_4) 0.0) (<= (+ (* (- 4.0) C) (* (- 1.0) S_2) S_5) 0.0) (<= (+ (* (- 5.0) C) (* (- 1.0) S_1) S_5) 0.0) $x664 $x42 (<= (+ L_0 (* (- 1.0) A_0) S_0) 0.0) (<= (+ ?x572 S_5 (* (- 1.0) S_4)) 0.0)))))))))))))))))))))))))))))))))))))))))))))))))))))
(check-sat)
